c --- [ banner ] -------------------------------------------------------------
c 
c CaDiCaL Radically Simplified CDCL SAT Solver
c Copyright (c) 2016-2021 A. Biere, M. Fleury, N. Froleyks
c 
c Version 1.5.2 a5f15211db36c3956764e18194dd5bd63bf3b5e6
c g++ (GCC) 9.3.0 -Wall -Wextra -O3 -DNDEBUG
c Fri Oct 21 01:27:37 EDT 2022 Linux gra-login3 3.10.0-1160.66.1.el7.x86_64 x86_64
c 
c --- [ limit ] --------------------------------------------------------------
c 
c setting conflict limit to 200000 conflicts (due to '200000')
c 
c --- [ parsing input ] ------------------------------------------------------
c 
c reading DIMACS file from '33.cubes1041.adj'
c opening file to read '33.cubes1041.adj'
c found 'p cnf 6160 1595471' header
c parsed 1595471 clauses in 19.24 seconds process time
c closing file '33.cubes1041.adj'
c after reading 1457566748 bytes 1390.0 MB
c 
c --- [ options ] ------------------------------------------------------------
c 
c all options are set to their default value
c 
c --- [ solving ] ------------------------------------------------------------
c 
c time measured in process time since initialization
c 
c  seconds    reductions  redundant   irredundant
c          MB     restarts       trail       variables
c            level   conflicts       glue         remaining
c 
c * 19.24 1369  0 0   0    0    0  0% 0 1595422 2355 38%
c { 20.25 1411  0 0   0    0    0  0% 0 1595422 2355 38%
c i 20.78 1431 890 0   0   13   12 33% 1 1595422 2354 38%
c i 22.01 1466 473 0   5   32   28 32% 9 1595422 2353 38%
c i 22.02 1466 460 0   5   33   28 32% 8 1595422 2352 38%
c i 22.17 1470 450 0   6   34   28 31% 8 1595422 2344 38%
c i 24.15 1487 193 0  20  104   85 30% 25 1595422 2336 38%
c i 24.23 1487 182 0  20  112   92 30% 25 1595422 2335 38%
c i 24.41 1488 137 0  20  165  141 29% 24 1595422 2334 38%
c i 24.41 1488 134 0  20  169  144 29% 23 1595422 2333 38%
c i 24.42 1488 132 0  20  171  145 29% 23 1595422 2332 38%
c i 24.45 1488 129 0  20  177  150 29% 22 1595422 2331 38%
c i 24.49 1488 127 0  20  179  151 29% 22 1595422 2330 38%
c i 24.52 1488 125 0  20  183  154 29% 21 1595422 2329 38%
c i 24.53 1488 121 0  20  190  160 29% 21 1595422 2328 38%
c i 25.11 1490 107 0  24  243  202 29% 24 1595422 2327 38%
c i 25.50 1493 108 0  28  278  233 28% 22 1595422 2326 38%
c i 25.62 1493 109 0  29  286  240 28% 24 1595422 2325 38%
c - 30.14 1409 109 1  33  300  251 28% 23 221588 2325 38%
c i 30.33 1409 108 1  33  330  262 27% 22 221588 2324 38%
c 
c  seconds     reductions  redundant   irredundant
c          MB      restarts       trail       variables
c             level   conflicts       glue         remaining
c 
c i 30.40 1409 108 1  33  339  270 27% 22 221588 2323 38%
c i 30.49 1409 105 1  38  372  293 27% 24 221588 2322 38%
c i 30.76 1409 101 1  48  412  328 27% 26 221588 2321 38%
c i 30.77 1409 100 1  50  418  332 27% 26 221588 2320 38%
c i 30.78 1409 100 1  51  421  334 27% 26 221588 2319 38%
c i 30.81 1409 98 1  56  437  347 27% 26 221588 2318 38%
c i 30.82 1409 97 1  57  442  351 27% 26 221588 2317 38%
c i 30.92 1409 95 1  63  464  369 27% 27 221588 2316 38%
c i 30.96 1409 93 1  66  475  378 27% 27 221588 2315 38%
c i 30.98 1409 93 1  66  480  382 27% 27 221588 2314 38%
c i 30.99 1409 93 1  66  483  384 27% 27 221588 2313 38%
c i 31.08 1409 91 1  69  497  397 27% 26 221588 2312 38%
c i 31.11 1409 92 1  69  507  406 27% 26 221588 2311 38%
c i 31.28 1409 95 1  75  535  430 28% 29 221588 2310 38%
c i 31.42 1409 93 1  79  550  442 27% 29 221588 2309 37%
c i 32.03 1409 75 1  95  832  570 26% 26 221588 2308 37%
c i 32.04 1409 75 1  95  834  571 26% 26 221588 2307 37%
c i 32.22 1409 76 1 100  850  584 26% 26 221588 2306 37%
c i 32.24 1409 76 1 100  854  587 26% 27 221588 2305 37%
c i 32.42 1410 76 1 105  875  607 26% 27 221588 2304 37%
c 
c  seconds    reductions  redundant   irredundant
c          MB     restarts       trail       variables
c            level   conflicts       glue         remaining
c 
c i 32.84 1410 78 1 120  931  657 26% 28 221588 2303 37%
c i 32.86 1410 78 1 121  935  660 26% 28 221588 2302 37%
c i 32.86 1410 78 1 122  938  662 26% 28 221588 2301 37%
c i 32.87 1410 78 1 123  939  662 26% 28 221588 2300 37%
c i 32.87 1410 78 1 123  940  662 26% 28 221588 2299 37%
c i 32.87 1410 77 1 124  942  663 26% 28 221588 2298 37%
c i 32.97 1410 77 1 127  953  672 26% 28 221588 2297 37%
c } 33.16 1410 78 1 139 1004  715 26% 28 221588 2297 37%
c [ 33.16 1410  0 1 139 1004  715  0% 0 221588 2297 37%
c O 33.18 1410  5 1 139 1005  716 21% 5 221588 2297 37%
c i 33.27 1410 15 1 139 1034  739 30% 11 221588 2296 37%
c i 33.30 1410 21 1 139 1049  752 31% 17 221588 2295 37%
c i 33.33 1410 25 1 139 1095  795 31% 21 221588 2294 37%
c i 33.33 1410 25 1 139 1097  796 31% 20 221588 2293 37%
c i 33.33 1410 25 1 139 1101  799 31% 20 221588 2292 37%
c i 33.34 1410 25 1 139 1108  804 31% 20 221588 2291 37%
c - 33.70 1430 25 2 139 1108  693 31% 20 221488 2291 37%
c i 33.73 1430 25 2 139 1113  696 31% 20 221488 2290 37%
c i 33.75 1430 26 2 139 1140  714 32% 20 221488 2289 37%
c i 33.75 1430 25 2 139 1143  716 31% 20 221488 2288 37%
c 
c  seconds    reductions  redundant   irredundant
c          MB     restarts       trail       variables
c            level   conflicts       glue         remaining
c 
c i 33.82 1430 23 2 139 1418  908 32% 20 221488 2287 37%
c i 33.82 1430 23 2 139 1438  925 32% 19 221488 2286 37%
c i 33.82 1430 23 2 139 1444  930 32% 19 221488 2285 37%
c i 33.83 1430 23 2 139 1453  934 32% 19 221488 2284 37%
c i 33.83 1430 23 2 139 1463  938 32% 20 221488 2283 37%
c i 33.83 1430 23 2 139 1471  943 32% 19 221488 2282 37%
c i 33.83 1430 23 2 139 1477  948 32% 19 221488 2281 37%
c i 33.84 1430 23 2 139 1507  971 32% 19 221488 2280 37%
c ] 33.84 1430 23 2 139 1519  982 32% 19 221488 2280 37%
c 1 33.84 1430 23 2 139 1519  982 32% 19 221488 2280 37%
c 
c --- [ writing output ] -----------------------------------------------------
c 
c writing simplified CNF to DIMACS file 'simp/33.cubes1041.adj.simp1'
c * 33.84 1430 23 2 139 1519  982 32% 19 221488 2280 37%
c opening file to write 'simp/33.cubes1041.adj.simp1'
c writing 'p cnf 6160 221455' header
c closing file 'simp/33.cubes1041.adj.simp1'
c after writing 98555574 bytes 94.0 MB
c wrote 221455 clauses in 0.77 seconds process time
c 
c --- [ writing extension ] --------------------------------------------------
c 
c writing extension stack to 'simp/33.cubes1041.adj.ext1'
c opening file to write 'simp/33.cubes1041.adj.ext1'
c closing file 'simp/33.cubes1041.adj.ext1'
c after writing 10942 bytes 0.0 MB
c wrote 736 witnesses in 0.00 seconds process time
c 
c --- [ result ] -------------------------------------------------------------
c 
s SATISFIABLE
c 
c --- [ run-time profiling ] -------------------------------------------------
c 
c process time taken by individual solving procedures
c (percentage relative to process time for solving)
c 
c        19.24  131.78% parse
c        14.60  100.00% search
c        12.91   88.39% unstable
c         1.01    6.93% lucky
c         0.68    4.68% stable
c         0.00    0.00% simplify
c   =================================
c        14.60   42.18% solve
c 
c last line shows process time for solving
c (percentage relative to total process time)
c 
c --- [ statistics ] ---------------------------------------------------------
c 
c chronological:               505        33.25 %  of conflicts
c conflicts:                  1519       104.04    per second
c decisions:                 20233      1385.76    per second
c fixed:                       736        11.95 %  of all variables
c learned:                    1470        96.77 %  per conflict
c learned_lits:             218945       100.00 %  learned literals
c minimized:                     0         0.00 %  learned literals
c shrunken:                 107785        49.23 %  learned literals
c minishrunken:              22303        10.19 %  learned literals
c propagations:             277517         0.02 M  per second
c reduced:                     111         7.31 %  per conflict
c rephased:                      1      1519.00    interval
c restarts:                    139        10.93    interval
c stabilizing:                   1        33.90 %  of conflicts
c subsumed:                    316         0.01 %  of all clauses
c 
c seconds are measured in process time for solving
c 
c --- [ resources ] ----------------------------------------------------------
c 
c total process time since initialization:        34.61    seconds
c total real time since initialization:           34.81    seconds
c maximum resident set size of process:         1497.29    MB
c 
c --- [ shutting down ] ------------------------------------------------------
c 
c exit 10
WARNING! DIMACS header mismatch: wrong number of variables.
============================[ Problem Statistics ]=============================
|                                                                             |
|  Number of variables:          6120                                         |
|  Number of clauses:          221455                                         |
|  Parse time:                   1.33 s                                       |
|  Simplification time:          0.02 s                                       |
|                                                                             |
============================[ Search Statistics ]====================================================
| Conflicts |          ORIGINAL         |          LEARNT          | Num Sols |      SUBGRAPHS      |
|           |    Vars  Clauses Literals |    Limit  Clauses Lit/Cl |          | Canonical Noncanon. |
=====================================================================================================
|       111 |    6028   221466 21553757 |     2000      110     88 |        0 |        18        11 |
|       275 |    6024   221480 21554139 |     2000      270    112 |        0 |        21        25 |
|       533 |    6021   221513 21555216 |     2000      525    120 |        0 |        22        58 |
|      1674 |    6021   222317 21571837 |     2000     1666     53 |        0 |       317       862 |
|      3092 |    6017   223229 21591695 |     3596     2084     34 |        0 |       612      1774 |
|      3911 |    6013   223289 21593001 |     3596     2899     53 |        0 |       633      1834 |
|      7473 |    6013   225712 21637053 |     4998     4671     20 |        0 |      1154      4257 |
|      9865 |    6011   226396 21650987 |     6306     4569     49 |        0 |      1449      4941 |
|     12861 |    6011   226830 21659731 |     7559     4420     50 |        0 |      1569      5375 |
|     24761 |    6011   234886 21806515 |     9991     8152     28 |        0 |      2585     13431 |
|     33546 |    6010   237905 21866742 |    12402     6348     18 |        0 |      3207     16450 |
|     51570 |    6010   247280 22017675 |    14808    11378     42 |        0 |      5302     25825 |
|     71184 |    6009   253920 22148360 |    17211    15595     34 |        0 |      6420     32465 |
|    106348 |    6009   269623 22437933 |    22013    12761     31 |        0 |      7935     48168 |
|    149041 |    6009   283124 22673130 |    25612    20653     43 |        0 |      9894     61669 |
|    210335 |    6009   300571 22970046 |    30414    27149     66 |        0 |     13367     79174 |
|    298780 |    6009   323332 23366787 |    36414    33594     48 |        0 |     16555    101935 |
|    465577 |    6009   391603 24430254 |    46017    37994     46 |        0 |     25043    170206 |
|    746913 |    6009   525150 26397898 |    59220    33333     22 |        0 |     39538    303753 |
|   1231898 |    5982   750355 26495236 |    76009    49307     35 |        0 |     64796    567055 |
=====================================================================================================
Number of solutions   : 0
Canonical subgraphs   : 73695          (45 /sec)
          order  3    : 1              (142857 /sec)
          order  4    : 1              (500000 /sec)
          order  5    : 1              (200000 /sec)
          order  6    : 1              (55556 /sec)
          order  7    : 2              (10309 /sec)
          order  8    : 6              (2625 /sec)
          order  9    : 16             (615 /sec)
          order 10    : 70             (216 /sec)
          order 11    : 368            (76 /sec)
          order 12    : 2258           (54 /sec)
          order 13    : 19605          (53 /sec)
          order 14    : 13254          (60 /sec)
          order 15    : 21547          (45 /sec)
          order 16    : 11362          (36 /sec)
          order 17    : 3707           (26 /sec)
          order 18    : 1004           (26 /sec)
          order 19    : 301            (27 /sec)
          order 20    : 96             (46 /sec)
          order 21    : 95             (49 /sec)
          order 22    : 0              (-nan /sec)
Noncanonical subgraphs: 601081         (369 /sec)
          order  3    : 0              (-nan /sec)
          order  4    : 0              (-nan /sec)
          order  5    : 0              (-nan /sec)
          order  6    : 0              (-nan /sec)
          order  7    : 0              (-nan /sec)
          order  8    : 0              (-nan /sec)
          order  9    : 0              (-nan /sec)
          order 10    : 0              (-nan /sec)
          order 11    : 0              (-nan /sec)
          order 12    : 0              (-nan /sec)
          order 13    : 37573          (2959 /sec)
          order 14    : 465655         (361 /sec)
          order 15    : 57560          (434 /sec)
          order 16    : 30587          (271 /sec)
          order 17    : 9509           (125 /sec)
          order 18    : 34             (373 /sec)
          order 19    : 0              (-nan /sec)
          order 20    : 33             (144 /sec)
          order 21    : 7              (112 /sec)
Canonicity checking   : 1636.63 s
Noncanonicity checking: 1628.85 s
Total canonicity time : 3265.47 s
database reductions   : 64
restarts              : 2558
conflicts             : 1347653        (359 /sec)
decisions             : 2230984        (0.00 % random) (594 /sec)
propagations          : 145762669      (38827 /sec)
conflict literals     : 99009397       (55.47 % deleted)
actual reward         : 0.093332
Memory used           : 398.00 MB
CPU time              : 3754.18 s

UNSATISFIABLE
